solution status: optimal solution found
objective value:                            40211.423
y#1                                                 1 	(obj:5700)
y#2                                                 1 	(obj:5700)
y#3                                                 1 	(obj:5700)
y#5                                                 1 	(obj:5700)
y#8                                                 1 	(obj:5700)
y#9                                                 1 	(obj:5700)
y#10                                                1 	(obj:5700)
x#1#2                                               1 	(obj:3.009)
x#2#2                                               1 	(obj:3.825)
x#3#1                                               1 	(obj:2.669)
x#4#10                                              1 	(obj:5.576)
x#5#10                                              1 	(obj:10.676)
x#6#8                                               1 	(obj:8.993)
x#7#10                                              1 	(obj:6.868)
x#8#5                                               1 	(obj:6.086)
x#9#5                                               1 	(obj:6.494)
x#10#3                                              1 	(obj:5.185)
x#11#3                                              1 	(obj:6.205)
x#12#9                                              1 	(obj:12.053)
x#13#9                                              1 	(obj:4.828)
x#14#2                                              1 	(obj:2.516)
x#15#2                                              1 	(obj:2.669)
x#16#2                                              1 	(obj:1.904)
x#17#2                                              1 	(obj:3.485)
x#18#5                                              1 	(obj:6.902)
x#19#5                                              1 	(obj:10.472)
x#20#3                                              1 	(obj:2.499)
x#21#3                                              1 	(obj:3.604)
x#22#9                                              1 	(obj:6.596)
x#23#9                                              1 	(obj:5.576)
x#24#9                                              1 	(obj:9.877)
x#25#8                                              1 	(obj:9.333)
x#26#8                                              1 	(obj:6.052)
x#27#8                                              1 	(obj:2.057)
x#28#8                                              1 	(obj:14.076)
x#29#5                                              1 	(obj:11.084)
x#30#2                                              1 	(obj:5.253)
x#31#3                                              1 	(obj:5.746)
x#32#3                                              1 	(obj:6.732)
x#33#3                                              1 	(obj:3.162)
x#34#5                                              1 	(obj:4.947)
x#35#5                                              1 	(obj:5.338)
x#36#10                                             1 	(obj:4.981)
x#37#10                                             1 	(obj:6.137)
x#38#8                                              1 	(obj:3.944)
x#39#9                                              1 	(obj:4.131)
x#40#5                                              1 	(obj:3.927)
x#41#5                                              1 	(obj:1.598)
x#42#2                                              1 	(obj:1.462)
x#43#2                                              1 	(obj:2.465)
x#44#2                                              1 	(obj:3.536)
x#45#10                                             1 	(obj:5.984)
x#46#1                                              1 	(obj:2.159)
x#47#1                                              1 	(obj:2.55)
x#48#1                                              1 	(obj:6.052)
x#49#1                                              1 	(obj:5.304)
x#50#1                                              1 	(obj:4.59)
x#51#1                                              1 	(obj:4.658)
x#52#10                                             1 	(obj:9.928)
x#53#1                                              1 	(obj:3.893)
x#54#1                                              1 	(obj:2.261)
x#55#10                                             1 	(obj:8.874)
x#56#10                                             1 	(obj:10.642)
